c turning on binary mode checking
c parsing input formula with 259840 variables and 1039934 clauses
c finished parsing, read 3181272 bytes from proof file
c detected empty clause; start verification via backward checking
c 6834 of 1039934 clauses in core                            
c 2178 of 126642 lemmas in core using 83091 resolution steps
c 0 RAT lemmas in core; 407 redundant literals in core lemmas
s VERIFIED
c verification time: 1.809 seconds
